8
2147483647 88 40 50 8 40 41 40 
88 2147483647 72 73 58 26 90 36 
40 72 2147483647 52 48 65 50 26 
50 73 52 2147483647 99 66 79 59 
8 58 48 99 2147483647 48 11 36 
40 26 65 66 48 2147483647 48 7 
41 90 50 79 11 48 2147483647 96 
40 36 26 59 36 7 96 2147483647 
